264
Lattice="0.0 0.0 0.0 0.0 0.0 0.0 0.0 0.0 25.56" Properties=species:S:1:pos:R:3 pbc="F F T"
C       24.59512147       0.00000000       0.00000000
C       25.82487754       0.71000000       0.00000000
C       25.82487754       2.13000000       0.00000000
C       24.59512147       2.84000000       0.00000000
C       24.59512147       4.26000000       0.00000000
C       25.82487754       4.97000000       0.00000000
C       25.82487754       6.39000000       0.00000000
C       24.59512147       7.10000000       0.00000000
C       24.59512147       8.52000000       0.00000000
C       25.82487754       9.23000000       0.00000000
C       25.82487754      10.65000000       0.00000000
C       24.59512147      11.36000000       0.00000000
C       24.59512147      12.78000000       0.00000000
C       25.82487754      13.49000000       0.00000000
C       25.82487754      14.91000000       0.00000000
C       24.59512147      15.62000000       0.00000000
C       24.59512147      17.04000000       0.00000000
C       25.82487754      17.75000000       0.00000000
C       25.82487754      19.17000000       0.00000000
C       24.59512147      19.88000000       0.00000000
C       24.59512147      21.30000000       0.00000000
C       25.82487754      22.01000000       0.00000000
C       25.82487754      23.43000000       0.00000000
C       24.59512147      24.14000000       0.00000000
C       22.13560932       0.00000000       0.00000000
C       23.36536539       0.71000000       0.00000000
C       23.36536539       2.13000000       0.00000000
C       22.13560932       2.84000000       0.00000000
C       22.13560932       4.26000000       0.00000000
C       23.36536539       4.97000000       0.00000000
C       23.36536539       6.39000000       0.00000000
C       22.13560932       7.10000000       0.00000000
C       22.13560932       8.52000000       0.00000000
C       23.36536539       9.23000000       0.00000000
C       23.36536539      10.65000000       0.00000000
C       22.13560932      11.36000000       0.00000000
C       22.13560932      12.78000000       0.00000000
C       23.36536539      13.49000000       0.00000000
C       23.36536539      14.91000000       0.00000000
C       22.13560932      15.62000000       0.00000000
C       22.13560932      17.04000000       0.00000000
C       23.36536539      17.75000000       0.00000000
C       23.36536539      19.17000000       0.00000000
C       22.13560932      19.88000000       0.00000000
C       22.13560932      21.30000000       0.00000000
C       23.36536539      22.01000000       0.00000000
C       23.36536539      23.43000000       0.00000000
C       22.13560932      24.14000000       0.00000000
C       19.67609717       0.00000000       0.00000000
C       20.90585325       0.71000000       0.00000000
C       20.90585325       2.13000000       0.00000000
C       19.67609717       2.84000000       0.00000000
C       19.67609717       4.26000000       0.00000000
C       20.90585325       4.97000000       0.00000000
C       20.90585325       6.39000000       0.00000000
C       19.67609717       7.10000000       0.00000000
C       19.67609717       8.52000000       0.00000000
C       20.90585325       9.23000000       0.00000000
C       20.90585325      10.65000000       0.00000000
C       19.67609717      11.36000000       0.00000000
C       19.67609717      12.78000000       0.00000000
C       20.90585325      13.49000000       0.00000000
C       20.90585325      14.91000000       0.00000000
C       19.67609717      15.62000000       0.00000000
C       19.67609717      17.04000000       0.00000000
C       20.90585325      17.75000000       0.00000000
C       20.90585325      19.17000000       0.00000000
C       19.67609717      19.88000000       0.00000000
C       19.67609717      21.30000000       0.00000000
C       20.90585325      22.01000000       0.00000000
C       20.90585325      23.43000000       0.00000000
C       19.67609717      24.14000000       0.00000000
C       17.21658503       0.00000000       0.00000000
C       18.44634110       0.71000000       0.00000000
C       18.44634110       2.13000000       0.00000000
C       17.21658503       2.84000000       0.00000000
C       17.21658503       4.26000000       0.00000000
C       18.44634110       4.97000000       0.00000000
C       18.44634110       6.39000000       0.00000000
C       17.21658503       7.10000000       0.00000000
C       17.21658503       8.52000000       0.00000000
C       18.44634110       9.23000000       0.00000000
C       18.44634110      10.65000000       0.00000000
C       17.21658503      11.36000000       0.00000000
C       17.21658503      12.78000000       0.00000000
C       18.44634110      13.49000000       0.00000000
C       18.44634110      14.91000000       0.00000000
C       17.21658503      15.62000000       0.00000000
C       17.21658503      17.04000000       0.00000000
C       18.44634110      17.75000000       0.00000000
C       18.44634110      19.17000000       0.00000000
C       17.21658503      19.88000000       0.00000000
C       17.21658503      21.30000000       0.00000000
C       18.44634110      22.01000000       0.00000000
C       18.44634110      23.43000000       0.00000000
C       17.21658503      24.14000000       0.00000000
C       14.75707288       0.00000000       0.00000000
C       15.98682895       0.71000000       0.00000000
C       15.98682895       2.13000000       0.00000000
C       14.75707288       2.84000000       0.00000000
C       14.75707288       4.26000000       0.00000000
C       15.98682895       4.97000000       0.00000000
C       15.98682895       6.39000000       0.00000000
C       14.75707288       7.10000000       0.00000000
C       14.75707288       8.52000000       0.00000000
C       15.98682895       9.23000000       0.00000000
C       15.98682895      10.65000000       0.00000000
C       14.75707288      11.36000000       0.00000000
C       14.75707288      12.78000000       0.00000000
C       15.98682895      13.49000000       0.00000000
C       15.98682895      14.91000000       0.00000000
C       14.75707288      15.62000000       0.00000000
C       14.75707288      17.04000000       0.00000000
C       15.98682895      17.75000000       0.00000000
C       15.98682895      19.17000000       0.00000000
C       14.75707288      19.88000000       0.00000000
C       14.75707288      21.30000000       0.00000000
C       15.98682895      22.01000000       0.00000000
C       15.98682895      23.43000000       0.00000000
C       14.75707288      24.14000000       0.00000000
C       12.29756073       0.00000000       0.00000000
C       13.52731681       0.71000000       0.00000000
C       13.52731681       2.13000000       0.00000000
C       12.29756073       2.84000000       0.00000000
C       12.29756073       4.26000000       0.00000000
C       13.52731681       4.97000000       0.00000000
C       13.52731681       6.39000000       0.00000000
C       12.29756073       7.10000000       0.00000000
C       12.29756073       8.52000000       0.00000000
C       13.52731681       9.23000000       0.00000000
C       13.52731681      10.65000000       0.00000000
C       12.29756073      11.36000000       0.00000000
C       12.29756073      12.78000000       0.00000000
C       13.52731681      13.49000000       0.00000000
C       13.52731681      14.91000000       0.00000000
C       12.29756073      15.62000000       0.00000000
C       12.29756073      17.04000000       0.00000000
C       13.52731681      17.75000000       0.00000000
C       13.52731681      19.17000000       0.00000000
C       12.29756073      19.88000000       0.00000000
C       12.29756073      21.30000000       0.00000000
C       13.52731681      22.01000000       0.00000000
C       13.52731681      23.43000000       0.00000000
C       12.29756073      24.14000000       0.00000000
C        9.83804859       0.00000000       0.00000000
C       11.06780466       0.71000000       0.00000000
C       11.06780466       2.13000000       0.00000000
C        9.83804859       2.84000000       0.00000000
C        9.83804859       4.26000000       0.00000000
C       11.06780466       4.97000000       0.00000000
C       11.06780466       6.39000000       0.00000000
C        9.83804859       7.10000000       0.00000000
C        9.83804859       8.52000000       0.00000000
C       11.06780466       9.23000000       0.00000000
C       11.06780466      10.65000000       0.00000000
C        9.83804859      11.36000000       0.00000000
C        9.83804859      12.78000000       0.00000000
C       11.06780466      13.49000000       0.00000000
C       11.06780466      14.91000000       0.00000000
C        9.83804859      15.62000000       0.00000000
C        9.83804859      17.04000000       0.00000000
C       11.06780466      17.75000000       0.00000000
C       11.06780466      19.17000000       0.00000000
C        9.83804859      19.88000000       0.00000000
C        9.83804859      21.30000000       0.00000000
C       11.06780466      22.01000000       0.00000000
C       11.06780466      23.43000000       0.00000000
C        9.83804859      24.14000000       0.00000000
C        7.37853644       0.00000000       0.00000000
C        8.60829251       0.71000000       0.00000000
C        8.60829251       2.13000000       0.00000000
C        7.37853644       2.84000000       0.00000000
C        7.37853644       4.26000000       0.00000000
C        8.60829251       4.97000000       0.00000000
C        8.60829251       6.39000000       0.00000000
C        7.37853644       7.10000000       0.00000000
C        7.37853644       8.52000000       0.00000000
C        8.60829251       9.23000000       0.00000000
C        8.60829251      10.65000000       0.00000000
C        7.37853644      11.36000000       0.00000000
C        7.37853644      12.78000000       0.00000000
C        8.60829251      13.49000000       0.00000000
C        8.60829251      14.91000000       0.00000000
C        7.37853644      15.62000000       0.00000000
C        7.37853644      17.04000000       0.00000000
C        8.60829251      17.75000000       0.00000000
C        8.60829251      19.17000000       0.00000000
C        7.37853644      19.88000000       0.00000000
C        7.37853644      21.30000000       0.00000000
C        8.60829251      22.01000000       0.00000000
C        8.60829251      23.43000000       0.00000000
C        7.37853644      24.14000000       0.00000000
C        4.91902429       0.00000000       0.00000000
C        6.14878037       0.71000000       0.00000000
C        6.14878037       2.13000000       0.00000000
C        4.91902429       2.84000000       0.00000000
C        4.91902429       4.26000000       0.00000000
C        6.14878037       4.97000000       0.00000000
C        6.14878037       6.39000000       0.00000000
C        4.91902429       7.10000000       0.00000000
C        4.91902429       8.52000000       0.00000000
C        6.14878037       9.23000000       0.00000000
C        6.14878037      10.65000000       0.00000000
C        4.91902429      11.36000000       0.00000000
C        4.91902429      12.78000000       0.00000000
C        6.14878037      13.49000000       0.00000000
C        6.14878037      14.91000000       0.00000000
C        4.91902429      15.62000000       0.00000000
C        4.91902429      17.04000000       0.00000000
C        6.14878037      17.75000000       0.00000000
C        6.14878037      19.17000000       0.00000000
C        4.91902429      19.88000000       0.00000000
C        4.91902429      21.30000000       0.00000000
C        6.14878037      22.01000000       0.00000000
C        6.14878037      23.43000000       0.00000000
C        4.91902429      24.14000000       0.00000000
C        2.45951215       0.00000000       0.00000000
C        3.68926822       0.71000000       0.00000000
C        3.68926822       2.13000000       0.00000000
C        2.45951215       2.84000000       0.00000000
C        2.45951215       4.26000000       0.00000000
C        3.68926822       4.97000000       0.00000000
C        3.68926822       6.39000000       0.00000000
C        2.45951215       7.10000000       0.00000000
C        2.45951215       8.52000000       0.00000000
C        3.68926822       9.23000000       0.00000000
C        3.68926822      10.65000000       0.00000000
C        2.45951215      11.36000000       0.00000000
C        2.45951215      12.78000000       0.00000000
C        3.68926822      13.49000000       0.00000000
C        3.68926822      14.91000000       0.00000000
C        2.45951215      15.62000000       0.00000000
C        2.45951215      17.04000000       0.00000000
C        3.68926822      17.75000000       0.00000000
C        3.68926822      19.17000000       0.00000000
C        2.45951215      19.88000000       0.00000000
C        2.45951215      21.30000000       0.00000000
C        3.68926822      22.01000000       0.00000000
C        3.68926822      23.43000000       0.00000000
C        2.45951215      24.14000000       0.00000000
C        0.00000000       0.00000000       0.00000000
C        1.22975607       0.71000000       0.00000000
C        1.22975607       2.13000000       0.00000000
C        0.00000000       2.84000000       0.00000000
C        0.00000000       4.26000000       0.00000000
C        1.22975607       4.97000000       0.00000000
C        1.22975607       6.39000000       0.00000000
C        0.00000000       7.10000000       0.00000000
C        0.00000000       8.52000000       0.00000000
C        1.22975607       9.23000000       0.00000000
C        1.22975607      10.65000000       0.00000000
C        0.00000000      11.36000000       0.00000000
C        0.00000000      12.78000000       0.00000000
C        1.22975607      13.49000000       0.00000000
C        1.22975607      14.91000000       0.00000000
C        0.00000000      15.62000000       0.00000000
C        0.00000000      17.04000000       0.00000000
C        1.22975607      17.75000000       0.00000000
C        1.22975607      19.17000000       0.00000000
C        0.00000000      19.88000000       0.00000000
C        0.00000000      21.30000000       0.00000000
C        1.22975607      22.01000000       0.00000000
C        1.22975607      23.43000000       0.00000000
C        0.00000000      24.14000000       0.00000000
