264
Lattice="0.0 0.0 0.0 0.0 0.0 0.0 0.0 0.0 29.51414576097367" Properties=species:S:1:pos:R:3 pbc="F F T"
C        0.00000000       0.00000000       0.00000000
C        0.71000000       1.22975607       0.00000000
C        0.00000000       2.45951215       0.00000000
C        0.71000000       3.68926822       0.00000000
C        0.00000000       4.91902429       0.00000000
C        0.71000000       6.14878037       0.00000000
C        0.00000000       7.37853644       0.00000000
C        0.71000000       8.60829251       0.00000000
C        0.00000000       9.83804859       0.00000000
C        0.71000000      11.06780466       0.00000000
C        0.00000000      12.29756073       0.00000000
C        0.71000000      13.52731681       0.00000000
C        0.00000000      14.75707288       0.00000000
C        0.71000000      15.98682895       0.00000000
C        0.00000000      17.21658503       0.00000000
C        0.71000000      18.44634110       0.00000000
C        0.00000000      19.67609717       0.00000000
C        0.71000000      20.90585325       0.00000000
C        0.00000000      22.13560932       0.00000000
C        0.71000000      23.36536539       0.00000000
C        0.00000000      24.59512147       0.00000000
C        0.71000000      25.82487754       0.00000000
C        0.00000000      27.05463361       0.00000000
C        0.71000000      28.28438969       0.00000000
C        2.13000000       1.22975607       0.00000000
C        2.84000000       2.45951215       0.00000000
C        2.13000000       3.68926822       0.00000000
C        2.84000000       4.91902429       0.00000000
C        2.13000000       6.14878037       0.00000000
C        2.84000000       7.37853644       0.00000000
C        2.13000000       8.60829251       0.00000000
C        2.84000000       9.83804859       0.00000000
C        2.13000000      11.06780466       0.00000000
C        2.84000000      12.29756073       0.00000000
C        2.13000000      13.52731681       0.00000000
C        2.84000000      14.75707288       0.00000000
C        2.13000000      15.98682895       0.00000000
C        2.84000000      17.21658503       0.00000000
C        2.13000000      18.44634110       0.00000000
C        2.84000000      19.67609717       0.00000000
C        2.13000000      20.90585325       0.00000000
C        2.84000000      22.13560932       0.00000000
C        2.13000000      23.36536539       0.00000000
C        2.84000000      24.59512147       0.00000000
C        2.13000000      25.82487754       0.00000000
C        2.84000000      27.05463361       0.00000000
C        2.13000000      28.28438969       0.00000000
C        2.84000000      -0.00000000       0.00000000
C        4.26000000       0.00000000       0.00000000
C        4.97000000       1.22975607       0.00000000
C        4.26000000       2.45951215       0.00000000
C        4.97000000       3.68926822       0.00000000
C        4.26000000       4.91902429       0.00000000
C        4.97000000       6.14878037       0.00000000
C        4.26000000       7.37853644       0.00000000
C        4.97000000       8.60829251       0.00000000
C        4.26000000       9.83804859       0.00000000
C        4.97000000      11.06780466       0.00000000
C        4.26000000      12.29756073       0.00000000
C        4.97000000      13.52731681       0.00000000
C        4.26000000      14.75707288       0.00000000
C        4.97000000      15.98682895       0.00000000
C        4.26000000      17.21658503       0.00000000
C        4.97000000      18.44634110       0.00000000
C        4.26000000      19.67609717       0.00000000
C        4.97000000      20.90585325       0.00000000
C        4.26000000      22.13560932       0.00000000
C        4.97000000      23.36536539       0.00000000
C        4.26000000      24.59512147       0.00000000
C        4.97000000      25.82487754       0.00000000
C        4.26000000      27.05463361       0.00000000
C        4.97000000      28.28438969       0.00000000
C        6.39000000       1.22975607       0.00000000
C        7.10000000       2.45951215       0.00000000
C        6.39000000       3.68926822       0.00000000
C        7.10000000       4.91902429       0.00000000
C        6.39000000       6.14878037       0.00000000
C        7.10000000       7.37853644       0.00000000
C        6.39000000       8.60829251       0.00000000
C        7.10000000       9.83804859       0.00000000
C        6.39000000      11.06780466       0.00000000
C        7.10000000      12.29756073       0.00000000
C        6.39000000      13.52731681       0.00000000
C        7.10000000      14.75707288       0.00000000
C        6.39000000      15.98682895       0.00000000
C        7.10000000      17.21658503       0.00000000
C        6.39000000      18.44634110       0.00000000
C        7.10000000      19.67609717       0.00000000
C        6.39000000      20.90585325       0.00000000
C        7.10000000      22.13560932       0.00000000
C        6.39000000      23.36536539       0.00000000
C        7.10000000      24.59512147       0.00000000
C        6.39000000      25.82487754       0.00000000
C        7.10000000      27.05463361       0.00000000
C        6.39000000      28.28438969       0.00000000
C        7.10000000      -0.00000000       0.00000000
C        8.52000000       0.00000000       0.00000000
C        9.23000000       1.22975607       0.00000000
C        8.52000000       2.45951215       0.00000000
C        9.23000000       3.68926822       0.00000000
C        8.52000000       4.91902429       0.00000000
C        9.23000000       6.14878037       0.00000000
C        8.52000000       7.37853644       0.00000000
C        9.23000000       8.60829251       0.00000000
C        8.52000000       9.83804859       0.00000000
C        9.23000000      11.06780466       0.00000000
C        8.52000000      12.29756073       0.00000000
C        9.23000000      13.52731681       0.00000000
C        8.52000000      14.75707288       0.00000000
C        9.23000000      15.98682895       0.00000000
C        8.52000000      17.21658503       0.00000000
C        9.23000000      18.44634110       0.00000000
C        8.52000000      19.67609717       0.00000000
C        9.23000000      20.90585325       0.00000000
C        8.52000000      22.13560932       0.00000000
C        9.23000000      23.36536539       0.00000000
C        8.52000000      24.59512147       0.00000000
C        9.23000000      25.82487754       0.00000000
C        8.52000000      27.05463361       0.00000000
C        9.23000000      28.28438969       0.00000000
C       10.65000000       1.22975607       0.00000000
C       11.36000000       2.45951215       0.00000000
C       10.65000000       3.68926822       0.00000000
C       11.36000000       4.91902429       0.00000000
C       10.65000000       6.14878037       0.00000000
C       11.36000000       7.37853644       0.00000000
C       10.65000000       8.60829251       0.00000000
C       11.36000000       9.83804859       0.00000000
C       10.65000000      11.06780466       0.00000000
C       11.36000000      12.29756073       0.00000000
C       10.65000000      13.52731681       0.00000000
C       11.36000000      14.75707288       0.00000000
C       10.65000000      15.98682895       0.00000000
C       11.36000000      17.21658503       0.00000000
C       10.65000000      18.44634110       0.00000000
C       11.36000000      19.67609717       0.00000000
C       10.65000000      20.90585325       0.00000000
C       11.36000000      22.13560932       0.00000000
C       10.65000000      23.36536539       0.00000000
C       11.36000000      24.59512147       0.00000000
C       10.65000000      25.82487754       0.00000000
C       11.36000000      27.05463361       0.00000000
C       10.65000000      28.28438969       0.00000000
C       11.36000000      -0.00000000       0.00000000
C       12.78000000       0.00000000       0.00000000
C       13.49000000       1.22975607       0.00000000
C       12.78000000       2.45951215       0.00000000
C       13.49000000       3.68926822       0.00000000
C       12.78000000       4.91902429       0.00000000
C       13.49000000       6.14878037       0.00000000
C       12.78000000       7.37853644       0.00000000
C       13.49000000       8.60829251       0.00000000
C       12.78000000       9.83804859       0.00000000
C       13.49000000      11.06780466       0.00000000
C       12.78000000      12.29756073       0.00000000
C       13.49000000      13.52731681       0.00000000
C       12.78000000      14.75707288       0.00000000
C       13.49000000      15.98682895       0.00000000
C       12.78000000      17.21658503       0.00000000
C       13.49000000      18.44634110       0.00000000
C       12.78000000      19.67609717       0.00000000
C       13.49000000      20.90585325       0.00000000
C       12.78000000      22.13560932       0.00000000
C       13.49000000      23.36536539       0.00000000
C       12.78000000      24.59512147       0.00000000
C       13.49000000      25.82487754       0.00000000
C       12.78000000      27.05463361       0.00000000
C       13.49000000      28.28438969       0.00000000
C       14.91000000       1.22975607       0.00000000
C       15.62000000       2.45951215       0.00000000
C       14.91000000       3.68926822       0.00000000
C       15.62000000       4.91902429       0.00000000
C       14.91000000       6.14878037       0.00000000
C       15.62000000       7.37853644       0.00000000
C       14.91000000       8.60829251       0.00000000
C       15.62000000       9.83804859       0.00000000
C       14.91000000      11.06780466       0.00000000
C       15.62000000      12.29756073       0.00000000
C       14.91000000      13.52731681       0.00000000
C       15.62000000      14.75707288       0.00000000
C       14.91000000      15.98682895       0.00000000
C       15.62000000      17.21658503       0.00000000
C       14.91000000      18.44634110       0.00000000
C       15.62000000      19.67609717       0.00000000
C       14.91000000      20.90585325       0.00000000
C       15.62000000      22.13560932       0.00000000
C       14.91000000      23.36536539       0.00000000
C       15.62000000      24.59512147       0.00000000
C       14.91000000      25.82487754       0.00000000
C       15.62000000      27.05463361       0.00000000
C       14.91000000      28.28438969       0.00000000
C       15.62000000      -0.00000000       0.00000000
C       17.04000000       0.00000000       0.00000000
C       17.75000000       1.22975607       0.00000000
C       17.04000000       2.45951215       0.00000000
C       17.75000000       3.68926822       0.00000000
C       17.04000000       4.91902429       0.00000000
C       17.75000000       6.14878037       0.00000000
C       17.04000000       7.37853644       0.00000000
C       17.75000000       8.60829251       0.00000000
C       17.04000000       9.83804859       0.00000000
C       17.75000000      11.06780466       0.00000000
C       17.04000000      12.29756073       0.00000000
C       17.75000000      13.52731681       0.00000000
C       17.04000000      14.75707288       0.00000000
C       17.75000000      15.98682895       0.00000000
C       17.04000000      17.21658503       0.00000000
C       17.75000000      18.44634110       0.00000000
C       17.04000000      19.67609717       0.00000000
C       17.75000000      20.90585325       0.00000000
C       17.04000000      22.13560932       0.00000000
C       17.75000000      23.36536539       0.00000000
C       17.04000000      24.59512147       0.00000000
C       17.75000000      25.82487754       0.00000000
C       17.04000000      27.05463361       0.00000000
C       17.75000000      28.28438969       0.00000000
C       19.17000000       1.22975607       0.00000000
C       19.88000000       2.45951215       0.00000000
C       19.17000000       3.68926822       0.00000000
C       19.88000000       4.91902429       0.00000000
C       19.17000000       6.14878037       0.00000000
C       19.88000000       7.37853644       0.00000000
C       19.17000000       8.60829251       0.00000000
C       19.88000000       9.83804859       0.00000000
C       19.17000000      11.06780466       0.00000000
C       19.88000000      12.29756073       0.00000000
C       19.17000000      13.52731681       0.00000000
C       19.88000000      14.75707288       0.00000000
C       19.17000000      15.98682895       0.00000000
C       19.88000000      17.21658503       0.00000000
C       19.17000000      18.44634110       0.00000000
C       19.88000000      19.67609717       0.00000000
C       19.17000000      20.90585325       0.00000000
C       19.88000000      22.13560932       0.00000000
C       19.17000000      23.36536539       0.00000000
C       19.88000000      24.59512147       0.00000000
C       19.17000000      25.82487754       0.00000000
C       19.88000000      27.05463361       0.00000000
C       19.17000000      28.28438969       0.00000000
C       19.88000000      -0.00000000       0.00000000
C       21.30000000       0.00000000       0.00000000
C       22.01000000       1.22975607       0.00000000
C       21.30000000       2.45951215       0.00000000
C       22.01000000       3.68926822       0.00000000
C       21.30000000       4.91902429       0.00000000
C       22.01000000       6.14878037       0.00000000
C       21.30000000       7.37853644       0.00000000
C       22.01000000       8.60829251       0.00000000
C       21.30000000       9.83804859       0.00000000
C       22.01000000      11.06780466       0.00000000
C       21.30000000      12.29756073       0.00000000
C       22.01000000      13.52731681       0.00000000
C       21.30000000      14.75707288       0.00000000
C       22.01000000      15.98682895       0.00000000
C       21.30000000      17.21658503       0.00000000
C       22.01000000      18.44634110       0.00000000
C       21.30000000      19.67609717       0.00000000
C       22.01000000      20.90585325       0.00000000
C       21.30000000      22.13560932       0.00000000
C       22.01000000      23.36536539       0.00000000
C       21.30000000      24.59512147       0.00000000
C       22.01000000      25.82487754       0.00000000
C       21.30000000      27.05463361       0.00000000
C       22.01000000      28.28438969       0.00000000
